Speck32/MILP/sol/6Round_192.sol
# Objective value = 15.99999999999999
pro0Rd0 1.0
pro1Rd0 1.0000000000000013
pro2Rd0 0.0
pro3Rd0 1.0
pro4Rd0 0.0
pro5Rd0 -0.0
pro6Rd0 -0.0
pro7Rd0 -0.0
pro8Rd0 1.0000000000000027
pro9Rd0 -0.0
pro10Rd0 -0.0
pro11Rd0 0.0
pro12Rd0 -0.0
pro13Rd0 -0.0
pro14Rd0 0.0
pro0Rd1 2.220446049250313e-16
pro1Rd1 -1.7763568394002505e-15
pro2Rd1 -2.220446049250313e-16
pro3Rd1 -8.326672684688674e-16
pro4Rd1 -0.0
pro5Rd1 -9.43689570931383e-16
pro6Rd1 1.0
pro7Rd1 0.0
pro8Rd1 1.0
pro9Rd1 -1.3322676295501878e-15
pro10Rd1 -1.3322676295501878e-15
pro11Rd1 -4.440892098500626e-15
pro12Rd1 7.771561172376096e-16
pro13Rd1 -1.5543122344752192e-15
pro14Rd1 -2.6645352591003757e-15
pro0Rd2 0.0
pro1Rd2 0.0
pro2Rd2 1.1102230246251565e-15
pro3Rd2 -1.1102230246251565e-15
pro4Rd2 -4.440892098500626e-16
pro5Rd2 -2.6645352591003757e-15
pro6Rd2 -0.0
pro7Rd2 -2.220446049250313e-16
pro8Rd2 -4.440892098500626e-16
pro9Rd2 -0.0
pro10Rd2 -1.5543122344752192e-15
pro11Rd2 -0.0
pro12Rd2 0.0
pro13Rd2 1.0
pro14Rd2 0.0
pro0Rd3 -1.3322676295501878e-15
pro1Rd3 -1.3322676295501878e-15
pro2Rd3 -0.0
pro3Rd3 -2.6645352591003757e-15
pro4Rd3 -0.0
pro5Rd3 0.0
pro6Rd3 -0.0
pro7Rd3 1.5543122344752192e-15
pro8Rd3 -3.552713678800501e-15
pro9Rd3 -0.0
pro10Rd3 0.0
pro11Rd3 1.0
pro12Rd3 -0.0
pro13Rd3 -0.0
pro14Rd3 -0.0
pro0Rd4 1.3322676295501878e-15
pro1Rd4 1.3322676295501878e-15
pro2Rd4 1.0
pro3Rd4 -2.6645352591003757e-15
pro4Rd4 4.440892098500626e-16
pro5Rd4 4.440892098500626e-16
pro6Rd4 -0.0
pro7Rd4 3.1086244689504383e-15
pro8Rd4 -1.3322676295501878e-15
pro9Rd4 1.0
pro10Rd4 -8.881784197001252e-16
pro11Rd4 1.0
pro12Rd4 4.440892098500626e-16
pro13Rd4 8.326672684688674e-16
pro14Rd4 1.5543122344752192e-15
pro0Rd5 1.0000000000000027
pro1Rd5 -0.0
pro2Rd5 1.0
pro3Rd5 -2.220446049250313e-16
pro4Rd5 -0.0
pro5Rd5 -3.9968028886505635e-15
pro6Rd5 -2.6645352591003757e-15
pro7Rd5 1.000000000000007
pro8Rd5 4.440892098500626e-15
pro9Rd5 0.9999999999999964
pro10Rd5 0.0
pro11Rd5 1.0000000000000009
pro12Rd5 0.0
pro13Rd5 -2.6645352591003757e-15
pro14Rd5 5.329070518200751e-15
p0 -1.7763568394002505e-15
p1 -3.3306690738754696e-15
p2 0.999999999999996
p3 0.0
p4 8.881784197001252e-16
p5 0.0
p6 0.0
p7 -0.0
p8 -0.0
p9 1.0
p10 1.0
p11 1.0
p12 -6.661338147750939e-16
p13 1.0000000000000018
p14 -1.7763568394002505e-15
p15 -7.771561172376096e-16
p16 -0.0
p17 -0.0
p18 -1.3322676295501878e-15
p19 -1.5265566588595902e-16
p20 1.0
p21 -1.7763568394002505e-15
p22 -7.771561172376096e-16
p23 -1.7763568394002505e-15
p24 -3.3306690738754696e-15
p25 -1.7763568394002505e-15
p26 0.0
p27 8.881784197001252e-16
p28 0.0
p29 0.0
p30 0.0
p31 0.0
p0Rd1 1.0000000000000007
p16Rd1 1.0000000000000004
temp0Rnd0 1.0
p1Rd1 0.0
p17Rd1 0.0
temp1Rnd0 -1.5265566588595902e-16
p2Rd1 1.0
p18Rd1 0.0
temp2Rnd0 1.0
p3Rd1 -1.3322676295501878e-15
p19Rd1 -2.220446049250313e-16
temp3Rnd0 -1.3322676295501878e-15
p4Rd1 -0.0
p20Rd1 -7.771561172376096e-16
temp4Rnd0 -7.771561172376096e-16
p5Rd1 -1.7763568394002505e-15
p21Rd1 0.0
temp5Rnd0 -1.7763568394002505e-15
p6Rd1 -7.771561172376096e-16
p22Rd1 -9.43689570931383e-16
temp6Rnd0 -2.3314683517128287e-15
p7Rd1 -1.7763568394002505e-15
p23Rd1 -0.0
temp7Rnd0 -1.7763568394002505e-15
p8Rd1 -3.3306690738754696e-15
p24Rd1 -0.0
temp8Rnd0 -2.1094237467877974e-15
p9Rd1 0.9999999999999991
p25Rd1 1.0
temp9Rnd0 1.0
p10Rd1 0.0
p26Rd1 -0.0
temp10Rnd0 0.0
p11Rd1 8.881784197001252e-16
p27Rd1 -1.3322676295501878e-15
temp11Rnd0 -1.2559397966072083e-15
p12Rd1 -0.0
p28Rd1 0.0
temp12Rnd0 0.0
p13Rd1 0.0
p29Rd1 -0.0
temp13Rnd0 0.0
p14Rd1 0.0
p30Rd1 1.1102230246251565e-15
temp14Rnd0 5.551115123125783e-16
p15Rd1 -0.0
p31Rd1 -0.0
temp15Rnd0 -2.220446049250313e-16
temp0 0.0
p0Rd2 0.0
p16Rd2 0.0
temp0Rnd1 0.0
p1Rd2 -2.220446049250313e-16
p17Rd2 -0.0
temp1Rnd1 -2.220446049250313e-16
p2Rd2 -1.7763568394002505e-15
p18Rd2 0.0
temp2Rnd1 0.0
p3Rd2 0.0
p19Rd2 -0.0
temp3Rnd1 0.0
p4Rd2 -9.43689570931383e-16
p20Rd2 -0.0
temp4Rnd1 -9.43689570931383e-16
p5Rd2 0.0
p21Rd2 -0.0
temp5Rnd1 -0.0
p6Rd2 -1.887379141862766e-15
p22Rd2 -2.6645352591003757e-15
temp6Rnd1 -2.6645352591003757e-15
p7Rd2 1.0
p23Rd2 0.0
temp7Rnd1 1.0
p8Rd2 0.0
p24Rd2 -0.0
temp8Rnd1 0.0
p9Rd2 -0.0
p25Rd2 -1.3322676295501878e-15
temp9Rnd1 -1.3322676295501878e-15
p10Rd2 -0.0
p26Rd2 0.0
temp10Rnd1 -0.0
p11Rd2 4.551914400963142e-15
p27Rd2 -1.5543122344752192e-15
temp11Rnd1 4.551914400963142e-15
p12Rd2 1.1102230246251565e-15
p28Rd2 -0.0
temp12Rnd1 1.1102230246251565e-15
p13Rd2 -1.1102230246251565e-15
p29Rd2 -0.0
temp13Rnd1 -5.551115123125783e-16
p14Rd2 -4.440892098500626e-16
p30Rd2 1.0
temp14Rnd1 1.0
p15Rd2 -2.6645352591003757e-15
p31Rd2 0.0
temp15Rnd1 -1.2212453270876722e-15
temp1 -2.6645352591003757e-15
p0Rd3 -0.0
p16Rd3 0.0
temp0Rnd2 0.0
p1Rd3 -0.0
p17Rd3 -0.0
temp1Rnd2 0.0
p2Rd3 -2.6645352591003757e-15
p18Rd3 -2.6645352591003757e-15
temp2Rnd2 -2.6645352591003757e-15
p3Rd3 -0.0
p19Rd3 0.0
temp3Rnd2 0.0
p4Rd3 -0.0
p20Rd3 -2.6645352591003757e-15
temp4Rnd2 -2.6645352591003757e-15
p5Rd3 0.0
p21Rd3 0.0
temp5Rnd2 0.0
p6Rd3 -0.0
p22Rd3 -0.0
temp6Rnd2 0.0
p7Rd3 -0.0
p23Rd3 -1.3322676295501878e-15
temp7Rnd2 -1.3322676295501878e-15
p8Rd3 -0.0
p24Rd3 0.0
temp8Rnd2 -0.0
p9Rd3 0.0
p25Rd3 -1.3322676295501878e-15
temp9Rnd2 -1.3322676295501878e-15
p10Rd3 -0.0
p26Rd3 0.0
temp10Rnd2 -0.0
p11Rd3 0.0
p27Rd3 -0.0
temp11Rnd2 0.0
p12Rd3 0.0
p28Rd3 1.0
temp12Rnd2 1.0
p13Rd3 0.0
p29Rd3 -0.0
temp13Rnd2 0.0
p14Rd3 -0.0
p30Rd3 -0.0
temp14Rnd2 -0.0
p15Rd3 -0.0
p31Rd3 0.0
temp15Rnd2 0.0
temp2 -0.0
p0Rd4 4.440892098500626e-16
p16Rd4 -5.329070518200751e-15
temp0Rnd3 -6.661338147750939e-15
p1Rd4 -1.3322676295501878e-15
p17Rd4 -1.3322676295501878e-15
temp1Rnd3 -1.3322676295501878e-15
p2Rd4 -2.6645352591003757e-15
p18Rd4 -0.0
temp2Rnd3 -2.6645352591003757e-15
p3Rd4 0.0
p19Rd4 -0.0
temp3Rnd3 -0.0
p4Rd4 -2.6645352591003757e-15
p20Rd4 -2.6645352591003757e-15
temp4Rnd3 -2.6645352591003757e-15
p5Rd4 -0.0
p21Rd4 -1.3322676295501878e-15
temp5Rnd3 -1.3322676295501878e-15
p6Rd4 -0.0
p22Rd4 -0.0
temp6Rnd3 0.0
p7Rd4 -1.3322676295501878e-15
p23Rd4 4.440892098500626e-16
temp7Rnd3 -4.440892098500626e-16
p8Rd4 1.5543122344752192e-15
p24Rd4 1.5543122344752192e-15
temp8Rnd3 1.5543122344752192e-15
p9Rd4 -8.881784197001252e-16
p25Rd4 -8.881784197001252e-16
temp9Rnd3 -8.881784197001252e-16
p10Rd4 0.0
p26Rd4 1.0
temp10Rnd3 1.0
p11Rd4 0.0
p27Rd4 0.0
temp11Rnd3 -0.0
p12Rd4 1.0
p28Rd4 1.0
temp12Rnd3 1.0
p13Rd4 0.0
p29Rd4 -0.0
temp13Rnd3 0.0
p14Rd4 -0.0
p30Rd4 0.0
temp14Rnd3 0.0
p15Rd4 -0.0
p31Rd4 -0.0
temp15Rnd3 0.0
temp3 0.0
p0Rd5 -0.0
p16Rd5 0.0
temp0Rnd4 0.0
p1Rd5 0.0
p17Rd5 0.0
temp1Rnd4 -0.0
p2Rd5 1.3322676295501878e-15
p18Rd5 0.0
temp2Rnd4 0.0
p3Rd5 1.0000000000000053
p19Rd5 1.0
temp3Rnd4 1.0000000000000013
p4Rd5 -0.0
p20Rd5 0.0
temp4Rnd4 -0.0
p5Rd5 -8.881784197001252e-16
p21Rd5 8.881784197001252e-16
temp5Rnd4 1.1102230246251565e-15
p6Rd5 4.440892098500626e-16
p22Rd5 -1.5543122344752192e-15
temp6Rnd4 -6.661338147750939e-16
p7Rd5 4.440892098500626e-16
p23Rd5 -7.993605777301127e-15
temp7Rnd4 -7.993605777301127e-15
p8Rd5 5.329070518200751e-15
p24Rd5 0.9999999999999947
temp8Rnd4 1.0
p9Rd5 -6.217248937900877e-15
p25Rd5 -6.217248937900877e-15
temp9Rnd4 -6.217248937900877e-15
p10Rd5 1.0000000000000009
p26Rd5 -8.881784197001252e-16
temp10Rnd4 1.0
p11Rd5 0.0
p27Rd5 0.0
temp11Rnd4 0.0
p12Rd5 0.9999999999999996
p28Rd5 0.9999999999999994
temp12Rnd4 0.9999999999999996
p13Rd5 4.440892098500626e-16
p29Rd5 4.440892098500626e-16
temp13Rnd4 4.440892098500626e-16
p14Rd5 8.881784197001252e-16
p30Rd5 1.0658141036401503e-14
temp14Rnd4 8.881784197001252e-16
p15Rd5 1.5543122344752192e-15
p31Rd5 5.329070518200751e-15
temp15Rnd4 2.220446049250313e-15
temp4 1.5543122344752192e-15
p0Rd6 -0.0
p16Rd6 0.0
temp0Rnd5 0.0
p1Rd6 1.0000000000000027
p17Rd6 -2.6645352591003757e-15
temp1Rnd5 1.0
p2Rd6 0.0
p18Rd6 0.0
temp2Rnd5 0.0
p3Rd6 -4.440892098500626e-16
p19Rd6 -2.220446049250313e-16
temp3Rnd5 -4.440892098500626e-16
p4Rd6 -2.220446049250313e-16
p20Rd6 1.3322676295501878e-15
temp4Rnd5 -2.220446049250313e-16
p5Rd6 8.881784197001252e-16
p21Rd6 -0.0
temp5Rnd5 -3.9968028886505635e-15
p6Rd6 -5.329070518200751e-15
p22Rd6 1.0
temp6Rnd5 0.9999999999999947
p7Rd6 -6.217248937900877e-15
p23Rd6 -0.0
temp7Rnd5 -6.217248937900877e-15
p8Rd6 0.9999999999999964
p24Rd6 0.9999999999999982
temp8Rnd5 0.9999999999999964
p9Rd6 -8.881784197001252e-16
p25Rd6 2.220446049250313e-15
temp9Rnd5 0.0
p10Rd6 0.9999999999999994
p26Rd6 -0.0
temp10Rnd5 0.9999999999999994
p11Rd6 4.440892098500626e-16
p27Rd6 -0.0
temp11Rnd5 4.440892098500626e-16
p12Rd6 0.9999999999999893
p28Rd6 1.0
temp12Rnd5 1.0
p13Rd6 4.440892098500626e-16
p29Rd6 -0.0
temp13Rnd5 3.3306690738754696e-15
p14Rd6 4.884981308350689e-15
p30Rd6 -4.884981308350689e-15
temp14Rnd5 0.0
p15Rd6 -0.0
p31Rd6 0.0
temp15Rnd5 0.0
temp5 5.329070518200751e-15
